NAME: zOneNode.sop
TYPE: SOP
COMMENT: Testinstanz von Thore Paetsch
DIMENSION: 3
EDGE_WEIGHT_TYPE: EXPLICIT
EDGE_WEIGHT_FORMAT: FULL_MATRIX 
EDGE_WEIGHT_SECTION
3
    0    1 1000000
   -1    0    2
   -1   -1    0
EOF